\ENCODING=ISO-8859-1
\Problem name: 

Minimize
 obj1: 99999 x(0,0) + 177.009305052991 x(0,1) + 550.675648585756 x(0,2)
       + 717.757240178058 x(0,3) + 981.224413104674 x(0,4)
       + 614.930326739174 x(0,5) + 455.234726464504 x(0,6)
       + 83.653136907151 x(0,7) + 137.851128785047 x(0,8)
       + 345.482051904949 x(0,9) + 136.631089151867 x(0,10)
       + 564.086509074494 x(0,11) + 344.588856393911 x(0,12)
       + 434.50852393399 x(0,13) + 177.009305052991 x(1,0) + 99999 x(1,1)
       + 449.724987457044 x(1,2) + 667.756396330289 x(1,3)
       + 1016.47667061676 x(1,4) + 637.693018541322 x(1,5)
       + 521.372204690521 x(1,6) + 212.968085133914 x(1,7)
       + 314.202703283981 x(1,8) + 477.725170655069 x(1,9)
       + 313.518919205441 x(1,10) + 574.393116926824 x(1,11)
       + 433.391525392925 x(1,12) + 402.693079224435 x(1,13)
       + 550.675648585756 x(2,0) + 449.724987457044 x(2,1) + 99999 x(2,2)
       + 269.825165890495 x(2,3) + 747.657236558306 x(2,4)
       + 421.626921372857 x(2,5) + 469.163853136237 x(2,6)
       + 509.23408801515 x(2,7) + 662.466451574661 x(2,8)
       + 895.787808709694 x(2,9) + 646.241876220618 x(2,10)
       + 354.657082874156 x(2,11) + 486.258069107853 x(2,12)
       + 209.901390424643 x(2,13) + 717.757240178058 x(3,0)
       + 667.756396330289 x(3,1) + 269.825165890495 x(3,2) + 99999 x(3,3)
       + 504.643144495023 x(3,4) + 279.304234581429 x(3,5)
       + 433.921938490191 x(3,6) + 652.907115463679 x(3,7)
       + 797.079289256112 x(3,8) + 1054.08787546071 x(3,9)
       + 775.318270106812 x(3,10) + 248.54462727441 x(3,11)
       + 512.15202797073 x(3,12) + 283.479791746119 x(3,13)
       + 981.224413104674 x(4,0) + 1016.47667061676 x(4,1)
       + 747.657236558306 x(4,2) + 504.643144495023 x(4,3) + 99999 x(4,4)
       + 379.063064637559 x(4,5) + 529.767283277258 x(4,6)
       + 898.296394238303 x(4,7) + 993.077069466483 x(4,8)
       + 1246.55562721185 x(4,9) + 967.50489670134 x(4,10)
       + 445.568206008921 x(4,11) + 647.253254961203 x(4,12)
       + 634.641626902713 x(4,13) + 614.930326739174 x(5,0)
       + 637.693018541322 x(5,1) + 421.626921372857 x(5,2)
       + 279.304234581429 x(5,3) + 379.063064637559 x(5,4) + 99999 x(5,5)
       + 197.611103306245 x(5,6) + 534.326936599377 x(5,7)
       + 649.008546161281 x(5,8) + 910.637516808886 x(5,9)
       + 624.0363414604 x(5,10) + 71.4523638844285 x(5,11)
       + 309.122803695165 x(5,12) + 263.315547301572 x(5,13)
       + 455.234726464504 x(6,0) + 521.372204690521 x(6,1)
       + 469.163853136237 x(6,2) + 433.921938490191 x(6,3)
       + 529.767283277258 x(6,4) + 197.611103306245 x(6,5) + 99999 x(6,6)
       + 371.632031811987 x(6,7) + 465.235361672515 x(6,8)
       + 723.35170810303 x(6,9) + 439.748735257039 x(6,10)
       + 188.861694813484 x(6,11) + 118.426109004551 x(6,12)
       + 261.064917597105 x(6,13) + 83.653136907151 x(7,0)
       + 212.968085133914 x(7,1) + 509.23408801515 x(7,2)
       + 652.907115463679 x(7,3) + 898.296394238303 x(7,4)
       + 534.326936599377 x(7,5) + 371.632031811987 x(7,6) + 99999 x(7,7)
       + 153.246968650571 x(7,8) + 401.342403389323 x(7,9)
       + 137.853957616835 x(7,10) + 485.939235591307 x(7,11)
       + 261.248721606905 x(7,12) + 369.954282252492 x(7,13)
       + 137.851128785047 x(8,0) + 314.202703283981 x(8,1)
       + 662.466451574661 x(8,2) + 797.079289256112 x(8,3)
       + 993.077069466483 x(8,4) + 649.008546161281 x(8,5)
       + 465.235361672515 x(8,6) + 153.246968650571 x(8,7) + 99999 x(8,8)
       + 262.488255792612 x(8,9) + 25.5748331282487 x(8,10)
       + 610.188356880129 x(8,11) + 346.826694241979 x(8,12)
       + 516.64958536784 x(8,13) + 345.482051904949 x(9,0)
       + 477.725170655069 x(9,1) + 895.787808709694 x(9,2)
       + 1054.08787546071 x(9,3) + 1246.55562721185 x(9,4)
       + 910.637516808886 x(9,5) + 723.35170810303 x(9,6)
       + 401.342403389323 x(9,7) + 262.488255792612 x(9,8) + 99999 x(9,9)
       + 286.95664160935 x(9,10) + 872.676603010018 x(9,11)
       + 605.248287375334 x(9,12) + 771.296618172002 x(9,13)
       + 136.631089151867 x(10,0) + 313.518919205441 x(10,1)
       + 646.241876220618 x(10,2) + 775.318270106812 x(10,3)
       + 967.50489670134 x(10,4) + 624.0363414604 x(10,5)
       + 439.748735257039 x(10,6) + 137.853957616835 x(10,7)
       + 25.5748331282487 x(10,8) + 286.95664160935 x(10,9) + 99999 x(10,10)
       + 585.874242935314 x(10,11) + 321.330931405086 x(10,12)
       + 495.894819041279 x(10,13) + 564.086509074494 x(11,0)
       + 574.393116926824 x(11,1) + 354.657082874156 x(11,2)
       + 248.54462727441 x(11,3) + 445.568206008921 x(11,4)
       + 71.4523638844285 x(11,5) + 188.861694813484 x(11,6)
       + 485.939235591307 x(11,7) + 610.188356880129 x(11,8)
       + 872.676603010018 x(11,9) + 585.874242935314 x(11,10) + 99999 x(11,11)
       + 284.220747137327 x(11,12) + 192.273132624671 x(11,13)
       + 344.588856393911 x(12,0) + 433.391525392925 x(12,1)
       + 486.258069107853 x(12,2) + 512.15202797073 x(12,3)
       + 647.253254961203 x(12,4) + 309.122803695165 x(12,5)
       + 118.426109004551 x(12,6) + 261.248721606905 x(12,7)
       + 346.826694241979 x(12,8) + 605.248287375334 x(12,9)
       + 321.330931405086 x(12,10) + 284.220747137327 x(12,11) + 99999 x(12,12)
       + 280.390110654804 x(12,13) + 434.50852393399 x(13,0)
       + 402.693079224435 x(13,1) + 209.901390424643 x(13,2)
       + 283.479791746119 x(13,3) + 634.641626902713 x(13,4)
       + 263.315547301572 x(13,5) + 261.064917597105 x(13,6)
       + 369.954282252492 x(13,7) + 516.64958536784 x(13,8)
       + 771.296618172002 x(13,9) + 495.894819041279 x(13,10)
       + 192.273132624671 x(13,11) + 280.390110654804 x(13,12) + 99999 x(13,13)
Subject To
 c1:  x(0,0) + x(0,1) + x(0,2) + x(0,3) + x(0,4) + x(0,5) + x(0,6) + x(0,7)
      + x(0,8) + x(0,9) + x(0,10) + x(0,11) + x(0,12) + x(0,13)  = 1
 c2:  x(1,0) + x(1,1) + x(1,2) + x(1,3) + x(1,4) + x(1,5) + x(1,6) + x(1,7)
      + x(1,8) + x(1,9) + x(1,10) + x(1,11) + x(1,12) + x(1,13)  = 1
 c3:  x(2,0) + x(2,1) + x(2,2) + x(2,3) + x(2,4) + x(2,5) + x(2,6) + x(2,7)
      + x(2,8) + x(2,9) + x(2,10) + x(2,11) + x(2,12) + x(2,13)  = 1
 c4:  x(3,0) + x(3,1) + x(3,2) + x(3,3) + x(3,4) + x(3,5) + x(3,6) + x(3,7)
      + x(3,8) + x(3,9) + x(3,10) + x(3,11) + x(3,12) + x(3,13)  = 1
 c5:  x(4,0) + x(4,1) + x(4,2) + x(4,3) + x(4,4) + x(4,5) + x(4,6) + x(4,7)
      + x(4,8) + x(4,9) + x(4,10) + x(4,11) + x(4,12) + x(4,13)  = 1
 c6:  x(5,0) + x(5,1) + x(5,2) + x(5,3) + x(5,4) + x(5,5) + x(5,6) + x(5,7)
      + x(5,8) + x(5,9) + x(5,10) + x(5,11) + x(5,12) + x(5,13)  = 1
 c7:  x(6,0) + x(6,1) + x(6,2) + x(6,3) + x(6,4) + x(6,5) + x(6,6) + x(6,7)
      + x(6,8) + x(6,9) + x(6,10) + x(6,11) + x(6,12) + x(6,13)  = 1
 c8:  x(7,0) + x(7,1) + x(7,2) + x(7,3) + x(7,4) + x(7,5) + x(7,6) + x(7,7)
      + x(7,8) + x(7,9) + x(7,10) + x(7,11) + x(7,12) + x(7,13)  = 1
 c9:  x(8,0) + x(8,1) + x(8,2) + x(8,3) + x(8,4) + x(8,5) + x(8,6) + x(8,7)
      + x(8,8) + x(8,9) + x(8,10) + x(8,11) + x(8,12) + x(8,13)  = 1
 c10: x(9,0) + x(9,1) + x(9,2) + x(9,3) + x(9,4) + x(9,5) + x(9,6) + x(9,7)
      + x(9,8) + x(9,9) + x(9,10) + x(9,11) + x(9,12) + x(9,13)  = 1
 c11: x(10,0) + x(10,1) + x(10,2) + x(10,3) + x(10,4) + x(10,5) + x(10,6)
      + x(10,7) + x(10,8) + x(10,9) + x(10,10) + x(10,11) + x(10,12) + x(10,13)
       = 1
 c12: x(11,0) + x(11,1) + x(11,2) + x(11,3) + x(11,4) + x(11,5) + x(11,6)
      + x(11,7) + x(11,8) + x(11,9) + x(11,10) + x(11,11) + x(11,12) + x(11,13)
       = 1
 c13: x(12,0) + x(12,1) + x(12,2) + x(12,3) + x(12,4) + x(12,5) + x(12,6)
      + x(12,7) + x(12,8) + x(12,9) + x(12,10) + x(12,11) + x(12,12) + x(12,13)
       = 1
 c14: x(13,0) + x(13,1) + x(13,2) + x(13,3) + x(13,4) + x(13,5) + x(13,6)
      + x(13,7) + x(13,8) + x(13,9) + x(13,10) + x(13,11) + x(13,12) + x(13,13)
       = 1
 c15: x(0,0) + x(1,0) + x(2,0) + x(3,0) + x(4,0) + x(5,0) + x(6,0) + x(7,0)
      + x(8,0) + x(9,0) + x(10,0) + x(11,0) + x(12,0) + x(13,0)  = 1
 c16: x(0,1) + x(1,1) + x(2,1) + x(3,1) + x(4,1) + x(5,1) + x(6,1) + x(7,1)
      + x(8,1) + x(9,1) + x(10,1) + x(11,1) + x(12,1) + x(13,1)  = 1
 c17: x(0,2) + x(1,2) + x(2,2) + x(3,2) + x(4,2) + x(5,2) + x(6,2) + x(7,2)
      + x(8,2) + x(9,2) + x(10,2) + x(11,2) + x(12,2) + x(13,2)  = 1
 c18: x(0,3) + x(1,3) + x(2,3) + x(3,3) + x(4,3) + x(5,3) + x(6,3) + x(7,3)
      + x(8,3) + x(9,3) + x(10,3) + x(11,3) + x(12,3) + x(13,3)  = 1
 c19: x(0,4) + x(1,4) + x(2,4) + x(3,4) + x(4,4) + x(5,4) + x(6,4) + x(7,4)
      + x(8,4) + x(9,4) + x(10,4) + x(11,4) + x(12,4) + x(13,4)  = 1
 c20: x(0,5) + x(1,5) + x(2,5) + x(3,5) + x(4,5) + x(5,5) + x(6,5) + x(7,5)
      + x(8,5) + x(9,5) + x(10,5) + x(11,5) + x(12,5) + x(13,5)  = 1
 c21: x(0,6) + x(1,6) + x(2,6) + x(3,6) + x(4,6) + x(5,6) + x(6,6) + x(7,6)
      + x(8,6) + x(9,6) + x(10,6) + x(11,6) + x(12,6) + x(13,6)  = 1
 c22: x(0,7) + x(1,7) + x(2,7) + x(3,7) + x(4,7) + x(5,7) + x(6,7) + x(7,7)
      + x(8,7) + x(9,7) + x(10,7) + x(11,7) + x(12,7) + x(13,7)  = 1
 c23: x(0,8) + x(1,8) + x(2,8) + x(3,8) + x(4,8) + x(5,8) + x(6,8) + x(7,8)
      + x(8,8) + x(9,8) + x(10,8) + x(11,8) + x(12,8) + x(13,8)  = 1
 c24: x(0,9) + x(1,9) + x(2,9) + x(3,9) + x(4,9) + x(5,9) + x(6,9) + x(7,9)
      + x(8,9) + x(9,9) + x(10,9) + x(11,9) + x(12,9) + x(13,9)  = 1
 c25: x(0,10) + x(1,10) + x(2,10) + x(3,10) + x(4,10) + x(5,10) + x(6,10)
      + x(7,10) + x(8,10) + x(9,10) + x(10,10) + x(11,10) + x(12,10) + x(13,10)
       = 1
 c26: x(0,11) + x(1,11) + x(2,11) + x(3,11) + x(4,11) + x(5,11) + x(6,11)
      + x(7,11) + x(8,11) + x(9,11) + x(10,11) + x(11,11) + x(12,11) + x(13,11)
       = 1
 c27: x(0,12) + x(1,12) + x(2,12) + x(3,12) + x(4,12) + x(5,12) + x(6,12)
      + x(7,12) + x(8,12) + x(9,12) + x(10,12) + x(11,12) + x(12,12) + x(13,12)
       = 1
 c28: x(0,13) + x(1,13) + x(2,13) + x(3,13) + x(4,13) + x(5,13) + x(6,13)
      + x(7,13) + x(8,13) + x(9,13) + x(10,13) + x(11,13) + x(12,13) + x(13,13)
       = 1
 c29: x(0,1) + x(0,7) + x(1,0) + x(1,7) + x(7,0) + x(7,1) <= 2
 c30: x(2,13) + x(13,2) <= 1
 c31: x(3,4) + x(4,3) <= 1
 c32: x(5,11) + x(11,5) <= 1
 c33: x(6,12) + x(12,6) <= 1
 c34: x(8,9) + x(8,10) + x(9,8) + x(9,10) + x(10,8) + x(10,9) <= 2
 c35: x(0,1) + x(1,0) <= 1
 c36: x(2,3) + x(2,4) + x(2,5) + x(2,6) + x(2,11) + x(2,12) + x(2,13) + x(3,2)
      + x(3,4) + x(3,5) + x(3,6) + x(3,11) + x(3,12) + x(3,13) + x(4,2)
      + x(4,3) + x(4,5) + x(4,6) + x(4,11) + x(4,12) + x(4,13) + x(5,2)
      + x(5,3) + x(5,4) + x(5,6) + x(5,11) + x(5,12) + x(5,13) + x(6,2)
      + x(6,3) + x(6,4) + x(6,5) + x(6,11) + x(6,12) + x(6,13) + x(11,2)
      + x(11,3) + x(11,4) + x(11,5) + x(11,6) + x(11,12) + x(11,13) + x(12,2)
      + x(12,3) + x(12,4) + x(12,5) + x(12,6) + x(12,11) + x(12,13) + x(13,2)
      + x(13,3) + x(13,4) + x(13,5) + x(13,6) + x(13,11) + x(13,12) <= 7
 c37: x(7,10) + x(10,7) <= 1
 c38: x(8,9) + x(9,8) <= 1
Bounds
 0 <= x(0,0) <= Inf
 0 <= x(0,1) <= Inf
 0 <= x(0,2) <= Inf
 0 <= x(0,3) <= Inf
 0 <= x(0,4) <= Inf
 0 <= x(0,5) <= Inf
 0 <= x(0,6) <= Inf
 0 <= x(0,7) <= Inf
 0 <= x(0,8) <= Inf
 0 <= x(0,9) <= Inf
 0 <= x(0,10) <= Inf
 0 <= x(0,11) <= Inf
 0 <= x(0,12) <= Inf
 0 <= x(0,13) <= Inf
 0 <= x(1,0) <= Inf
 0 <= x(1,1) <= Inf
 0 <= x(1,2) <= Inf
 0 <= x(1,3) <= Inf
 0 <= x(1,4) <= Inf
 0 <= x(1,5) <= Inf
 0 <= x(1,6) <= Inf
 0 <= x(1,7) <= Inf
 0 <= x(1,8) <= Inf
 0 <= x(1,9) <= Inf
 0 <= x(1,10) <= Inf
 0 <= x(1,11) <= Inf
 0 <= x(1,12) <= Inf
 0 <= x(1,13) <= Inf
 0 <= x(2,0) <= Inf
 0 <= x(2,1) <= Inf
 0 <= x(2,2) <= Inf
 0 <= x(2,3) <= Inf
 0 <= x(2,4) <= Inf
 0 <= x(2,5) <= Inf
 0 <= x(2,6) <= Inf
 0 <= x(2,7) <= Inf
 0 <= x(2,8) <= Inf
 0 <= x(2,9) <= Inf
 0 <= x(2,10) <= Inf
 0 <= x(2,11) <= Inf
 0 <= x(2,12) <= Inf
 0 <= x(2,13) <= Inf
 0 <= x(3,0) <= Inf
 0 <= x(3,1) <= Inf
 0 <= x(3,2) <= Inf
 0 <= x(3,3) <= Inf
 0 <= x(3,4) <= Inf
 0 <= x(3,5) <= Inf
 0 <= x(3,6) <= Inf
 0 <= x(3,7) <= Inf
 0 <= x(3,8) <= Inf
 0 <= x(3,9) <= Inf
 0 <= x(3,10) <= Inf
 0 <= x(3,11) <= Inf
 0 <= x(3,12) <= Inf
 0 <= x(3,13) <= Inf
 0 <= x(4,0) <= Inf
 0 <= x(4,1) <= Inf
 0 <= x(4,2) <= Inf
 0 <= x(4,3) <= Inf
 0 <= x(4,4) <= Inf
 0 <= x(4,5) <= Inf
 0 <= x(4,6) <= Inf
 0 <= x(4,7) <= Inf
 0 <= x(4,8) <= Inf
 0 <= x(4,9) <= Inf
 0 <= x(4,10) <= Inf
 0 <= x(4,11) <= Inf
 0 <= x(4,12) <= Inf
 0 <= x(4,13) <= Inf
 0 <= x(5,0) <= Inf
 0 <= x(5,1) <= Inf
 0 <= x(5,2) <= Inf
 0 <= x(5,3) <= Inf
 0 <= x(5,4) <= Inf
 0 <= x(5,5) <= Inf
 0 <= x(5,6) <= Inf
 0 <= x(5,7) <= Inf
 0 <= x(5,8) <= Inf
 0 <= x(5,9) <= Inf
 0 <= x(5,10) <= Inf
 0 <= x(5,11) <= Inf
 0 <= x(5,12) <= Inf
 0 <= x(5,13) <= Inf
 0 <= x(6,0) <= Inf
 0 <= x(6,1) <= Inf
 0 <= x(6,2) <= Inf
 0 <= x(6,3) <= Inf
 0 <= x(6,4) <= Inf
 0 <= x(6,5) <= Inf
 0 <= x(6,6) <= Inf
 0 <= x(6,7) <= Inf
 0 <= x(6,8) <= Inf
 0 <= x(6,9) <= Inf
 0 <= x(6,10) <= Inf
 0 <= x(6,11) <= Inf
 0 <= x(6,12) <= Inf
 0 <= x(6,13) <= Inf
 0 <= x(7,0) <= Inf
 0 <= x(7,1) <= Inf
 0 <= x(7,2) <= Inf
 0 <= x(7,3) <= Inf
 0 <= x(7,4) <= Inf
 0 <= x(7,5) <= Inf
 0 <= x(7,6) <= Inf
 0 <= x(7,7) <= Inf
 0 <= x(7,8) <= Inf
 0 <= x(7,9) <= Inf
 0 <= x(7,10) <= Inf
 0 <= x(7,11) <= Inf
 0 <= x(7,12) <= Inf
 0 <= x(7,13) <= Inf
 0 <= x(8,0) <= Inf
 0 <= x(8,1) <= Inf
 0 <= x(8,2) <= Inf
 0 <= x(8,3) <= Inf
 0 <= x(8,4) <= Inf
 0 <= x(8,5) <= Inf
 0 <= x(8,6) <= Inf
 0 <= x(8,7) <= Inf
 0 <= x(8,8) <= Inf
 0 <= x(8,9) <= Inf
 0 <= x(8,10) <= Inf
 0 <= x(8,11) <= Inf
 0 <= x(8,12) <= Inf
 0 <= x(8,13) <= Inf
 0 <= x(9,0) <= Inf
 0 <= x(9,1) <= Inf
 0 <= x(9,2) <= Inf
 0 <= x(9,3) <= Inf
 0 <= x(9,4) <= Inf
 0 <= x(9,5) <= Inf
 0 <= x(9,6) <= Inf
 0 <= x(9,7) <= Inf
 0 <= x(9,8) <= Inf
 0 <= x(9,9) <= Inf
 0 <= x(9,10) <= Inf
 0 <= x(9,11) <= Inf
 0 <= x(9,12) <= Inf
 0 <= x(9,13) <= Inf
 0 <= x(10,0) <= Inf
 0 <= x(10,1) <= Inf
 0 <= x(10,2) <= Inf
 0 <= x(10,3) <= Inf
 0 <= x(10,4) <= Inf
 0 <= x(10,5) <= Inf
 0 <= x(10,6) <= Inf
 0 <= x(10,7) <= Inf
 0 <= x(10,8) <= Inf
 0 <= x(10,9) <= Inf
 0 <= x(10,10) <= Inf
 0 <= x(10,11) <= Inf
 0 <= x(10,12) <= Inf
 0 <= x(10,13) <= Inf
 0 <= x(11,0) <= Inf
 0 <= x(11,1) <= Inf
 0 <= x(11,2) <= Inf
 0 <= x(11,3) <= Inf
 0 <= x(11,4) <= Inf
 0 <= x(11,5) <= Inf
 0 <= x(11,6) <= Inf
 0 <= x(11,7) <= Inf
 0 <= x(11,8) <= Inf
 0 <= x(11,9) <= Inf
 0 <= x(11,10) <= Inf
 0 <= x(11,11) <= Inf
 0 <= x(11,12) <= Inf
 0 <= x(11,13) <= Inf
 0 <= x(12,0) <= Inf
 0 <= x(12,1) <= Inf
 0 <= x(12,2) <= Inf
 0 <= x(12,3) <= Inf
 0 <= x(12,4) <= Inf
 0 <= x(12,5) <= Inf
 0 <= x(12,6) <= Inf
 0 <= x(12,7) <= Inf
 0 <= x(12,8) <= Inf
 0 <= x(12,9) <= Inf
 0 <= x(12,10) <= Inf
 0 <= x(12,11) <= Inf
 0 <= x(12,12) <= Inf
 0 <= x(12,13) <= Inf
 0 <= x(13,0) <= Inf
 0 <= x(13,1) <= Inf
 0 <= x(13,2) <= Inf
 0 <= x(13,3) <= Inf
 0 <= x(13,4) <= Inf
 0 <= x(13,5) <= Inf
 0 <= x(13,6) <= Inf
 0 <= x(13,7) <= Inf
 0 <= x(13,8) <= Inf
 0 <= x(13,9) <= Inf
 0 <= x(13,10) <= Inf
 0 <= x(13,11) <= Inf
 0 <= x(13,12) <= Inf
 0 <= x(13,13) <= Inf
Binaries
 x(0,0)  x(0,1)  x(0,2)  x(0,3)  x(0,4)  x(0,5)  x(0,6)  x(0,7)  x(0,8) 
 x(0,9)  x(0,10)  x(0,11)  x(0,12)  x(0,13)  x(1,0)  x(1,1)  x(1,2)  x(1,3) 
 x(1,4)  x(1,5)  x(1,6)  x(1,7)  x(1,8)  x(1,9)  x(1,10)  x(1,11)  x(1,12) 
 x(1,13)  x(2,0)  x(2,1)  x(2,2)  x(2,3)  x(2,4)  x(2,5)  x(2,6)  x(2,7) 
 x(2,8)  x(2,9)  x(2,10)  x(2,11)  x(2,12)  x(2,13)  x(3,0)  x(3,1)  x(3,2) 
 x(3,3)  x(3,4)  x(3,5)  x(3,6)  x(3,7)  x(3,8)  x(3,9)  x(3,10)  x(3,11) 
 x(3,12)  x(3,13)  x(4,0)  x(4,1)  x(4,2)  x(4,3)  x(4,4)  x(4,5)  x(4,6) 
 x(4,7)  x(4,8)  x(4,9)  x(4,10)  x(4,11)  x(4,12)  x(4,13)  x(5,0)  x(5,1) 
 x(5,2)  x(5,3)  x(5,4)  x(5,5)  x(5,6)  x(5,7)  x(5,8)  x(5,9)  x(5,10) 
 x(5,11)  x(5,12)  x(5,13)  x(6,0)  x(6,1)  x(6,2)  x(6,3)  x(6,4)  x(6,5) 
 x(6,6)  x(6,7)  x(6,8)  x(6,9)  x(6,10)  x(6,11)  x(6,12)  x(6,13)  x(7,0) 
 x(7,1)  x(7,2)  x(7,3)  x(7,4)  x(7,5)  x(7,6)  x(7,7)  x(7,8)  x(7,9) 
 x(7,10)  x(7,11)  x(7,12)  x(7,13)  x(8,0)  x(8,1)  x(8,2)  x(8,3)  x(8,4) 
 x(8,5)  x(8,6)  x(8,7)  x(8,8)  x(8,9)  x(8,10)  x(8,11)  x(8,12)  x(8,13) 
 x(9,0)  x(9,1)  x(9,2)  x(9,3)  x(9,4)  x(9,5)  x(9,6)  x(9,7)  x(9,8) 
 x(9,9)  x(9,10)  x(9,11)  x(9,12)  x(9,13)  x(10,0)  x(10,1)  x(10,2) 
 x(10,3)  x(10,4)  x(10,5)  x(10,6)  x(10,7)  x(10,8)  x(10,9)  x(10,10) 
 x(10,11)  x(10,12)  x(10,13)  x(11,0)  x(11,1)  x(11,2)  x(11,3)  x(11,4) 
 x(11,5)  x(11,6)  x(11,7)  x(11,8)  x(11,9)  x(11,10)  x(11,11)  x(11,12) 
 x(11,13)  x(12,0)  x(12,1)  x(12,2)  x(12,3)  x(12,4)  x(12,5)  x(12,6) 
 x(12,7)  x(12,8)  x(12,9)  x(12,10)  x(12,11)  x(12,12)  x(12,13)  x(13,0) 
 x(13,1)  x(13,2)  x(13,3)  x(13,4)  x(13,5)  x(13,6)  x(13,7)  x(13,8) 
 x(13,9)  x(13,10)  x(13,11)  x(13,12)  x(13,13) 
End
